p tw 2179 2394
1 2
2 1113
3 114
4 15
4 462
5 6
6 7
6 9
7 8
8 14
9 10
10 11
11 12
12 13
13 14
14 16
15 26
16 17
17 18
18 19
19 20
20 21
21 22
21 49
22 23
23 24
24 25
25 27
26 37
26 688
27 28
28 29
28 49
29 30
30 31
31 32
32 33
33 34
34 35
34 38
35 36
36 43
37 48
38 39
39 40
40 41
41 42
42 43
43 44
44 45
45 46
46 47
47 23
48 59
48 1447
49 50
50 51
51 52
52 53
53 54
54 55
55 56
56 57
57 58
57 60
58 60
59 70
60 61
61 62
62 63
63 64
64 65
64 76
65 66
65 76
66 67
67 68
67 76
68 69
69 71
70 81
70 1128
71 72
72 73
73 74
74 75
75 1113
76 77
77 78
78 79
78 80
79 80
80 82
81 92
82 83
83 84
84 85
85 86
86 87
87 88
88 89
89 90
90 91
90 94
91 93
92 103
92 1832
93 94
94 95
95 96
96 97
97 98
98 99
99 100
100 101
101 102
102 104
103 115
104 105
105 106
106 107
107 108
108 109
109 110
110 111
111 112
112 113
113 116
114 225
114 447
115 126
115 1113
116 117
117 118
118 119
118 121
119 120
120 127
121 122
122 123
123 124
124 125
125 127
126 1304
127 128
128 129
129 130
130 131
130 132
131 132
132 133
133 134
134 135
135 136
136 138
137 148
138 139
139 140
140 141
141 142
142 143
143 144
144 145
144 1113
145 146
146 147
147 149
148 159
149 150
150 151
151 152
152 153
153 1113
154 155
155 156
156 157
157 158
158 160
159 170
160 161
161 162
162 163
163 164
164 165
165 166
166 167
167 168
168 169
169 171
170 181
171 172
172 173
172 175
173 174
174 175
175 176
176 177
177 178
178 179
179 180
180 182
181 192
182 183
183 184
184 1113
185 186
186 187
187 188
188 189
189 190
190 191
191 193
192 203
193 194
194 195
195 196
196 197
197 198
197 200
198 199
198 220
199 200
200 201
201 202
202 204
203 214
204 205
205 206
205 208
206 207
207 208
208 209
209 210
210 211
211 212
212 213
213 215
214 226
215 216
216 217
217 218
217 193
218 219
219 193
220 221
221 222
222 223
223 1113
224 227
225 336
226 237
227 228
228 229
229 230
229 235
230 231
231 232
232 233
233 234
234 1113
235 236
236 238
237 248
238 239
239 240
240 241
241 242
242 243
243 244
244 245
245 246
246 247
246 253
247 249
248 259
249 250
250 251
251 252
252 1113
253 254
254 255
255 256
256 257
257 258
257 261
258 260
259 270
260 275
261 262
262 263
263 264
264 265
264 267
265 266
266 273
267 268
268 269
269 271
270 281
271 272
272 273
273 274
274 275
275 276
276 277
277 278
278 279
279 280
280 1113
281 292
282 283
283 284
284 285
285 286
286 287
287 288
288 289
289 290
290 291
291 293
292 303
293 294
294 295
295 296
296 297
297 298
298 299
299 300
299 302
300 301
301 302
302 304
303 314
304 305
305 306
306 307
307 308
308 309
309 310
310 311
311 1113
312 313
313 315
314 325
315 316
316 317
316 322
317 318
318 319
319 320
320 321
321 1113
322 323
323 324
324 326
325 337
326 327
327 328
328 329
329 330
330 331
330 333
331 332
332 340
333 334
334 335
335 338
336 447
336 780
337 348
338 339
339 340
340 341
341 342
342 343
343 344
344 345
345 346
346 347
347 349
348 359
349 350
350 351
351 352
352 353
353 354
353 356
354 355
355 356
356 357
357 358
358 360
359 1113
360 361
361 362
362 363
363 364
364 365
365 366
366 367
367 368
367 371
368 369
369 371
370 381
371 372
372 373
373 374
374 375
375 376
376 377
377 378
378 379
379 1113
380 382
381 392
382 383
383 384
384 385
384 390
385 386
386 387
387 388
388 389
389 1113
390 391
391 393
392 403
393 394
394 395
395 396
396 397
397 398
398 399
398 405
399 400
400 401
401 402
402 404
403 414
404 1113
405 406
406 407
407 408
408 409
409 410
409 412
410 411
411 418
412 413
413 415
414 425
415 416
416 417
417 418
418 419
419 420
420 421
421 422
422 423
422 429
423 424
424 426
425 436
426 427
427 428
428 1113
429 430
430 431
431 432
432 433
433 434
434 435
435 437
436 448
437 438
438 439
439 440
440 441
440 1113
441 442
442 443
443 444
443 450
444 445
445 446
446 449
447 558
448 459
449 435
450 451
451 452
452 453
453 454
453 458
454 455
455 456
456 457
457 458
458 460
459 470
460 461
461 435
462 463
463 464
464 465
465 466
466 467
466 469
467 468
468 469
469 471
470 481
471 472
472 473
473 474
473 478
474 475
475 476
476 477
477 478
478 479
479 480
480 482
481 492
482 483
483 484
483 488
484 485
485 486
486 487
487 488
488 489
489 490
490 1113
491 493
492 503
493 494
494 495
495 496
496 497
496 502
497 498
498 499
499 500
500 501
501 1113
502 504
503 514
504 505
505 506
506 507
507 508
508 509
509 510
509 1113
510 511
511 512
512 513
513 515
514 525
515 506
516 517
517 518
518 519
519 520
520 521
520 527
521 522
522 523
523 524
524 526
525 536
526 1113
527 528
528 529
529 530
530 531
531 532
532 1113
533 534
534 535
535 537
536 547
537 538
537 543
538 539
539 540
540 541
541 542
542 1113
543 544
544 545
545 546
546 548
547 559
547 581
548 549
549 550
550 551
550 553
551 552
552 553
553 554
554 555
555 556
556 557
557 560
558 669
559 570
560 561
561 562
562 563
563 564
564 565
565 566
566 567
567 568
568 569
569 571
570 581
571 1113
572 573
573 574
574 575
575 576
576 577
576 583
577 578
578 579
579 580
580 582
581 592
582 1113
583 584
584 585
585 586
586 587
587 588
588 589
589 590
590 591
591 593
592 603
593 594
594 595
595 596
596 597
597 598
598 599
599 600
600 1113
601 602
602 604
602 1113
603 614
604 605
605 606
606 607
606 601
607 608
608 609
609 601
610 611
611 612
612 613
613 615
614 625
615 616
615 621
616 617
617 618
618 619
619 620
620 1113
621 622
622 623
623 624
624 626
625 636
626 627
627 628
628 629
629 630
630 631
631 632
632 633
633 634
633 682
634 635
635 637
636 647
637 638
638 639
638 644
639 640
640 641
641 642
642 643
643 1113
644 645
645 646
646 648
646 677
647 658
648 649
649 650
650 651
651 652
652 653
653 654
654 655
655 656
656 657
657 659
658 670
659 660
660 661
660 663
661 662
662 663
663 664
664 665
665 666
666 667
667 668
668 671
669 780
669 1359
670 1113
671 672
672 673
673 674
673 655
674 675
675 676
676 677
677 678
678 679
679 680
680 1113
681 692
682 683
683 684
684 685
685 686
686 687
687 1113
688 689
689 690
690 691
691 693
692 703
693 694
693 699
694 695
695 696
696 697
697 698
698 1113
699 700
700 701
701 702
702 704
703 1113
704 705
705 706
706 707
707 708
707 732
708 709
709 710
710 711
711 712
711 728
712 713
713 715
714 725
715 716
716 717
717 718
718 719
719 720
720 721
721 722
721 728
722 723
723 724
724 726
725 736
726 727
727 717
728 729
729 730
730 731
731 741
732 733
733 734
734 735
735 737
736 747
736 1113
737 738
738 739
738 682
739 740
740 741
741 742
742 743
743 744
744 745
745 746
746 748
747 758
748 1113
749 750
750 751
751 1113
752 753
753 754
754 755
755 756
756 757
757 759
758 769
759 760
760 761
760 766
761 762
762 763
763 764
764 765
765 1113
766 767
767 768
768 770
769 1113
770 771
771 772
772 773
773 774
774 775
775 776
776 777
777 778
777 797
778 779
779 782
780 891
781 792
782 783
783 784
784 785
785 786
786 787
787 788
788 789
788 797
789 790
790 791
791 793
792 803
793 794
793 784
794 795
795 796
796 784
797 798
798 799
799 800
800 1113
801 802
802 804
803 814
804 805
805 806
805 811
806 807
807 808
808 809
809 810
810 1113
811 812
812 813
813 815
814 825
814 880
815 816
816 817
817 818
818 819
819 820
820 821
821 822
822 823
823 824
823 846
824 826
825 836
826 827
827 828
827 830
828 829
829 835
830 831
831 832
832 833
833 834
834 835
835 837
836 847
837 838
838 839
839 840
840 841
840 846
841 842
842 843
843 844
844 845
845 1113
846 848
847 858
848 849
849 850
850 851
851 852
852 853
853 854
854 855
854 861
855 856
856 857
857 859
858 869
859 860
860 1113
861 862
862 863
863 864
864 865
864 881
865 866
866 867
867 868
868 870
868 872
869 1113
870 871
871 877
872 873
873 874
874 875
875 876
876 877
877 878
878 879
879 881
880 892
881 882
882 883
883 884
883 889
884 885
885 886
886 887
887 888
888 1113
889 890
890 893
891 1002
892 903
893 894
894 895
895 896
896 897
897 898
898 899
899 900
900 901
900 927
901 902
902 904
903 914
904 905
905 906
906 907
906 682
907 908
908 909
909 910
910 911
911 912
912 913
913 915
914 925
914 1003
915 916
916 917
917 918
918 919
919 920
920 921
921 922
921 950
922 923
923 924
924 926
925 936
926 918
927 928
928 929
929 930
930 931
931 932
932 933
933 934
934 935
935 937
936 947
937 938
938 939
939 940
939 950
940 941
941 942
942 943
943 944
944 945
945 946
946 948
947 958
948 949
949 950
950 951
951 952
952 953
953 954
954 955
955 956
956 957
957 959
958 969
959 960
959 962
960 961
961 962
962 963
963 964
964 965
965 966
965 972
966 967
967 968
968 970
969 980
970 971
971 1113
972 973
973 974
974 975
975 976
976 977
977 978
978 979
979 981
980 991
981 1113
982 983
983 984
984 985
985 986
985 992
986 987
987 988
988 989
989 990
990 1113
991 1113
992 993
993 994
994 995
995 996
996 997
997 998
998 999
999 1000
1000 1001
1001 1004
1002 1114
1003 1014
1004 1005
1005 1006
1005 1028
1006 1007
1007 1008
1008 1009
1008 1011
1009 1010
1010 1017
1011 1012
1012 1013
1013 1015
1014 1025
1015 1016
1016 1017
1017 1018
1018 1019
1019 1020
1020 1021
1021 1022
1021 1028
1022 1023
1023 1024
1024 1026
1025 1036
1026 1027
1027 1113
1028 1029
1029 1030
1030 1031
1031 1032
1032 1033
1033 1034
1034 1035
1035 1037
1035 1042
1036 1047
1037 1038
1038 1039
1039 1040
1040 1041
1041 1113
1042 1043
1043 1044
1044 1045
1045 1046
1045 1062
1046 1048
1047 1058
1048 1049
1049 1050
1050 1051
1050 1053
1051 1052
1052 1059
1053 1054
1054 1055
1055 1056
1056 1057
1057 1059
1058 1069
1059 1060
1060 1061
1061 1062
1062 1063
1063 1064
1064 1065
1064 1071
1065 1066
1066 1067
1067 1068
1068 1070
1069 1080
1070 1113
1071 1072
1072 1073
1073 1074
1074 1075
1075 1076
1076 1077
1077 1078
1078 1079
1079 1081
1080 1091
1081 1082
1081 1117
1082 1083
1083 1084
1084 1085
1085 1086
1086 1087
1087 1088
1088 1089
1089 1090
1090 1092
1091 1102
1092 1093
1093 1094
1093 1117
1094 1095
1095 1096
1096 1097
1097 1098
1098 1099
1099 1100
1100 1101
1100 1117
1101 1103
1102 1115
1103 1104
1104 1105
1105 1106
1106 1107
1107 1108
1108 1109
1109 1110
1110 1111
1111 1112
1112 1116
1113 1403
1114 1225
1115 1126
1116 1113
1117 1118
1118 1119
1119 1120
1120 1121
1121 1122
1122 1123
1123 1124
1124 1125
1125 1127
1126 1137
1127 1113
1128 1129
1129 1130
1130 1131
1131 1132
1131 1138
1132 1133
1133 1134
1134 1135
1135 1136
1136 1113
1137 1148
1138 1139
1139 1140
1140 1141
1141 1142
1142 1143
1142 1174
1143 1144
1144 1145
1145 1146
1145 1174
1146 1147
1147 1149
1148 1159
1149 1150
1150 1151
1151 1152
1152 1153
1153 1154
1154 1155
1154 1161
1155 1156
1156 1157
1157 1158
1158 1160
1159 1170
1160 1176
1161 1162
1162 1163
1163 1164
1164 1165
1165 1166
1166 1167
1167 1168
1167 1176
1168 1169
1169 1171
1170 1181
1171 1172
1172 1173
1173 1113
1174 1175
1175 1176
1176 1177
1177 1178
1178 1179
1179 1180
1179 1185
1180 1182
1181 1192
1182 1183
1183 1184
1184 1113
1185 1186
1186 1187
1187 1188
1188 1189
1189 1190
1189 1113
1190 1191
1191 1193
1192 1203
1193 1194
1194 1113
1195 1196
1196 1197
1197 1198
1198 1199
1199 1200
1200 1201
1200 1207
1201 1202
1202 1204
1203 1214
1204 1205
1205 1206
1206 1113
1207 1208
1208 1209
1209 1210
1210 1211
1211 1212
1212 1213
1213 1215
1214 1226
1215 1216
1216 1217
1217 1218
1218 1219
1218 1221
1219 1220
1220 1213
1221 1222
1222 1223
1223 1224
1224 1227
1225 1315
1226 1237
1227 1228
1228 1229
1229 1230
1230 1231
1231 1232
1232 1233
1232 1235
1233 1234
1234 1235
1235 1236
1236 1238
1237 1248
1238 1239
1239 1240
1240 1241
1241 1242
1242 1243
1243 1244
1244 1245
1245 1246
1246 1247
1247 1249
1248 1259
1249 1250
1250 1251
1251 1252
1251 1285
1252 1253
1253 1254
1254 1255
1255 1256
1255 1258
1256 1257
1257 1258
1258 1260
1259 1270
1260 1261
1261 1262
1262 1263
1263 1264
1264 1265
1265 1266
1266 1267
1267 1268
1267 1246
1268 1269
1269 1271
1270 1281
1271 1272
1272 1273
1272 1275
1273 1274
1274 1275
1275 1276
1276 1277
1277 1278
1278 1279
1279 1280
1280 1282
1281 1292
1282 1283
1283 1284
1284 1246
1285 1286
1286 1287
1287 1288
1288 1289
1289 1113
1290 1291
1291 1293
1292 1303
1293 1294
1294 1295
1294 1113
1295 1128
1296 1297
1297 1298
1298 1299
1299 1300
1300 1301
1301 1302
1301 1113
1302 1128
1303 1313
1304 1305
1305 1306
1306 1307
1307 1308
1308 1309
1309 1310
1310 1113
1311 1312
1313 1314
1314 1316
1315 1326
1316 1317
1317 1318
1318 1319
1319 1320
1319 1342
1320 1321
1321 1322
1321 1342
1322 1323
1323 1324
1323 1342
1324 1325
1325 1327
1326 1337
1327 1328
1327 1329
1328 1329
1329 1330
1330 1331
1331 1332
1331 1333
1332 1333
1333 1334
1334 1335
1335 1336
1336 1338
1337 1348
1338 1339
1339 1340
1340 1341
1341 1342
1342 1343
1343 1344
1344 1345
1345 1346
1346 1347
1347 1349
1348 1113
1349 1350
1349 1352
1350 1351
1351 1352
1352 1353
1353 1354
1354 1355
1355 1356
1356 1357
1357 1358
1358 1360
1359 1370
1360 1361
1361 1113
1362 1363
1363 1364
1364 1365
1364 1113
1365 1366
1366 1367
1367 1368
1367 1371
1368 1369
1369 1371
1370 1381
1371 1372
1372 1373
1373 1374
1374 1113
1375 1376
1376 1377
1377 1378
1377 1113
1378 1379
1379 1380
1380 1382
1381 1392
1381 1113
1382 1383
1383 1384
1384 1385
1385 1386
1385 1411
1386 1387
1387 1388
1388 1389
1389 1390
1390 1391
1391 1393
1391 1395
1392 1404
1393 1394
1394 1395
1395 1396
1396 1397
1397 1398
1398 1399
1399 1400
1400 1401
1401 1402
1402 1405
1403 1514
1404 1415
1404 1113
1405 1406
1406 1407
1407 1408
1408 1409
1409 1410
1410 1113
1411 1412
1412 1413
1413 1414
1414 1416
1415 1426
1416 1417
1417 1418
1418 1419
1419 1420
1420 1421
1421 1422
1422 1423
1423 1424
1424 1425
1425 1427
1426 1437
1426 1113
1427 1428
1428 1429
1429 1430
1430 1431
1431 1432
1432 1433
1433 1434
1433 1436
1434 1435
1435 1436
1436 1438
1437 1448
1438 1439
1439 1440
1440 1441
1441 1442
1442 1443
1443 1444
1444 1445
1445 1446
1446 1113
1447 1449
1448 1459
1448 1290
1449 1450
1450 1451
1451 1452
1451 1457
1452 1453
1453 1454
1454 1455
1455 1456
1456 1113
1457 1458
1458 1460
1459 1470
1460 1461
1461 1462
1462 1463
1463 1464
1464 1465
1465 1466
1466 1467
1467 1468
1468 1469
1469 1471
1469 1488
1470 1481
1470 1375
1471 1472
1472 1473
1473 1474
1474 1475
1475 1476
1475 1478
1476 1477
1477 1478
1478 1479
1479 1480
1480 1482
1481 1492
1482 1483
1483 1484
1484 1485
1485 1486
1486 1487
1487 1113
1488 1489
1489 1490
1490 1491
1491 1493
1491 1495
1492 1503
1492 781
1493 1494
1494 1500
1495 1496
1496 1497
1497 1498
1498 1499
1499 1500
1500 1501
1501 1502
1502 1504
1503 1515
1504 1505
1504 1510
1505 1506
1506 1507
1507 1508
1508 1509
1509 1113
1510 1511
1511 1512
1512 1513
1513 1516
1513 1518
1514 1625
1515 1526
1515 714
1516 1517
1517 1522
1518 1519
1519 1520
1520 1521
1521 1522
1522 1523
1523 1524
1524 1525
1525 1527
1526 1537
1527 1528
1528 1529
1529 1530
1530 1531
1531 1532
1532 1533
1533 1534
1534 1535
1535 1536
1536 1538
1536 1540
1537 1548
1537 681
1538 1539
1539 1540
1540 1541
1541 1542
1542 1543
1543 1544
1544 1545
1545 1546
1546 1547
1547 1549
1548 1559
1549 1550
1550 1551
1551 1113
1552 1553
1553 1554
1554 1555
1555 1556
1556 1557
1556 1563
1557 1558
1558 1560
1559 1570
1559 1362
1560 1561
1561 1562
1562 1113
1563 1564
1564 1565
1565 1566
1566 1567
1567 1568
1568 1569
1569 1571
1570 1581
1571 1572
1572 1573
1573 1574
1573 1579
1574 1575
1575 1576
1576 1577
1577 1578
1578 1113
1579 1580
1580 1582
1581 1592
1581 801
1582 1583
1583 1584
1583 1591
1584 1585
1585 1586
1586 1587
1587 1588
1588 1589
1589 1590
1590 1113
1591 1593
1592 1603
1593 1594
1594 1595
1595 1596
1596 1597
1597 1598
1598 1599
1598 1621
1599 1600
1600 1601
1601 1602
1602 1604
1603 1614
1603 982
1604 1605
1605 1606
1605 1608
1606 1607
1607 1615
1608 1609
1609 1610
1610 1611
1611 1612
1612 1613
1613 1615
1614 1626
1615 1616
1616 1617
1617 1618
1617 1621
1618 1619
1619 1620
1620 1621
1621 1622
1622 1623
1623 1624
1624 1627
1625 1736
1626 1637
1626 1296
1627 1628
1628 1629
1629 1630
1630 1631
1630 1636
1631 1632
1632 1633
1633 1634
1634 1635
1635 1113
1636 1638
1637 1648
1638 1639
1639 1640
1640 1641
1641 1642
1642 1643
1643 1644
1644 1645
1645 1646
1646 1647
1647 1649
1648 1659
1648 1296
1649 1650
1650 1651
1651 1652
1652 1653
1653 1654
1654 1655
1655 1656
1656 1657
1657 1658
1658 1660
1659 1670
1660 1661
1661 1662
1662 1663
1663 1664
1663 1666
1664 1665
1665 1674
1666 1667
1667 1668
1668 1669
1669 1671
1670 1681
1670 1296
1671 1672
1672 1673
1673 1674
1674 1675
1675 1676
1676 1677
1677 1678
1678 1679
1679 1680
1680 1682
1681 1692
1682 1683
1682 1702
1683 1684
1684 1685
1685 1686
1686 1687
1687 1688
1688 1689
1688 1691
1689 1690
1690 1699
1691 1693
1692 1703
1692 1195
1693 1694
1694 1695
1695 1696
1696 1697
1697 1698
1698 1699
1699 1700
1700 1701
1701 1702
1702 1704
1703 1714
1704 1705
1705 1706
1706 1707
1707 1708
1708 1709
1709 1710
1710 1711
1711 1712
1711 1771
1712 1713
1713 1715
1714 1725
1714 2089
1715 1716
1715 1718
1716 1717
1717 1720
1718 1719
1719 1720
1720 1721
1721 1722
1722 1723
1722 1750
1723 1724
1724 1726
1725 1737
1726 1727
1727 1728
1728 1729
1729 1730
1730 1731
1731 1732
1732 1733
1733 1734
1734 1735
1734 1739
1735 1738
1736 1847
1736 2069
1737 1748
1737 282
1738 1739
1739 1740
1740 1741
1741 1742
1742 1743
1743 1744
1744 1745
1745 1746
1746 1747
1747 1749
1748 1759
1749 1790
1750 1751
1751 1752
1752 1753
1753 1754
1754 1755
1755 1756
1756 1757
1756 1760
1757 1758
1758 1760
1759 1770
1759 752
1760 1761
1761 1762
1762 1763
1763 1764
1764 1765
1765 1766
1766 1767
1767 1768
1768 1769
1769 1790
1770 1781
1771 1772
1772 1773
1773 1774
1774 1775
1775 1776
1776 1777
1777 1778
1777 1780
1778 1779
1779 1780
1780 1782
1781 1792
1781 154
1782 1783
1783 1784
1784 1785
1785 1786
1786 1787
1787 1788
1788 1789
1789 1790
1790 1791
1791 1793
1791 1113
1792 1803
1793 1794
1794 1795
1795 1796
1796 1797
1797 1798
1798 1799
1799 1800
1800 1801
1801 1802
1802 1804
1803 1814
1803 533
1804 1805
1804 1807
1805 1806
1806 1807
1807 1808
1808 1809
1809 1810
1810 1811
1811 1812
1812 1813
1813 1815
1814 1825
1815 1816
1816 1817
1817 1818
1817 1820
1818 1819
1819 1820
1820 1821
1821 1822
1822 1823
1823 1824
1824 1826
1825 1836
1825 380
1826 1827
1827 1828
1828 1829
1829 1830
1830 1831
1831 1362
1832 1833
1833 1834
1834 1835
1835 1837
1836 1848
1837 1838
1838 1839
1839 1840
1840 1841
1840 1842
1841 1842
1842 1843
1843 1844
1844 1845
1845 1846
1845 1872
1846 1849
1847 1958
1848 1859
1848 610
1849 1850
1850 1851
1851 1852
1852 1853
1853 1854
1853 1856
1854 1855
1855 1856
1856 1857
1857 1858
1858 1860
1859 1870
1860 1861
1861 1862
1862 1863
1863 1864
1864 1865
1865 1866
1866 1867
1867 1868
1868 1869
1869 1871
1870 1881
1870 312
1871 1872
1872 1873
1873 1874
1874 1875
1875 1876
1876 1877
1877 1878
1878 1879
1878 1882
1879 1880
1880 1882
1881 1892
1882 1883
1883 1884
1884 1885
1885 1886
1886 1887
1887 1888
1888 1889
1889 1890
1890 1891
1891 1893
1892 1903
1892 137
1893 1894
1893 1896
1894 1895
1895 1896
1896 1897
1897 1898
1898 1899
1899 1900
1900 1901
1901 1902
1902 1904
1903 1914
1904 1905
1905 1113
1906 1907
1907 1908
1908 1909
1909 1910
1909 1916
1910 1911
1911 1912
1912 1913
1913 1915
1914 1925
1914 1906
1915 1113
1916 1917
1917 1918
1918 1919
1919 1920
1920 1921
1921 1922
1922 1923
1923 1924
1924 1926
1925 1936
1926 1927
1927 1928
1928 1929
1928 1932
1929 1930
1930 1931
1931 1932
1932 1933
1933 1934
1934 1935
1935 1937
1936 1947
1936 185
1937 1938
1938 1939
1938 2002
1939 1940
1940 1941
1941 1942
1941 1944
1942 1943
1943 1950
1944 1945
1945 1946
1946 1948
1947 1959
1948 1949
1949 1950
1950 1951
1951 1952
1952 1953
1953 1954
1954 1955
1954 1998
1955 1956
1956 1957
1957 1960
1958 2069
1958 780
1959 1970
1959 1552
1960 1961
1961 1962
1962 1963
1962 1965
1963 1964
1964 1967
1965 1966
1966 1967
1967 1968
1968 1969
1969 1971
1969 1973
1970 1981
1971 1972
1972 2002
1973 1974
1974 1975
1975 1976
1976 1977
1977 1978
1977 1980
1978 1979
1979 1986
1980 1982
1981 1992
1981 370
1982 1983
1983 1984
1984 1985
1985 1986
1986 1987
1987 1988
1988 1989
1989 1990
1989 1993
1990 1991
1991 2002
1992 2003
1993 1994
1994 1995
1995 1996
1995 2002
1996 1997
1997 2002
1998 1999
1999 2000
2000 2001
2000 2002
2001 2002
2002 2004
2003 2014
2003 601
2004 2005
2005 2006
2006 2007
2007 2008
2008 2009
2009 2010
2010 2011
2010 2035
2011 2012
2012 2013
2013 2015
2014 2025
2015 2016
2016 2017
2017 2018
2017 2020
2018 2019
2019 2020
2020 2021
2021 2022
2022 2023
2023 2024
2024 2026
2025 2036
2025 572
2026 2027
2027 2028
2028 2029
2029 2030
2030 2031
2031 2032
2032 2033
2033 2034
2034 2035
2035 2037
2036 2047
2037 2038
2038 2039
2039 2040
2040 2041
2041 2042
2042 2043
2042 2045
2043 2044
2044 2045
2045 2046
2046 2048
2047 2058
2047 491
2048 2049
2049 2050
2050 2051
2051 2052
2052 2053
2053 2054
2054 2055
2055 2056
2056 2057
2056 2060
2057 2059
2058 2070
2059 2060
2060 2061
2061 2062
2062 2063
2063 2064
2064 2065
2065 2066
2066 2067
2067 2068
2068 1113
2069 3
2070 2081
2070 2071
2071 2072
2072 2073
2073 2074
2074 2075
2074 2080
2075 2076
2076 2077
2077 2078
2078 2079
2079 1113
2080 2082
2081 2092
2082 2083
2083 2084
2084 2085
2085 2086
2086 2087
2087 2088
2088 1113
2089 2090
2090 2091
2091 2093
2092 2103
2092 224
2093 2094
2094 2095
2095 2096
2096 2097
2097 2098
2098 2099
2099 2100
2100 2101
2101 2102
2102 2104
2103 2114
2104 2105
2105 2106
2106 2107
2107 2108
2107 2110
2108 2109
2109 2110
2110 2111
2111 2112
2112 2113
2113 2115
2114 2125
2114 749
2115 2116
2116 2117
2117 2118
2118 2119
2119 1113
2120 2121
2121 2122
2122 2123
2123 2124
2123 2130
2124 2126
2125 2136
2126 2127
2127 2128
2128 2129
2129 1113
2130 2131
2131 2132
2132 2133
2133 2134
2134 2135
2135 2137
2136 2147
2136 2120
2137 2138
2138 2139
2139 2140
2140 2141
2141 2142
2142 2143
2143 2144
2144 2145
2145 2146
2146 2148
2147 2158
2148 2149
2149 2150
2150 2151
2151 2152
2152 2153
2152 2155
2153 2154
2154 2161
2155 2156
2156 2157
2157 2159
2158 2169
2158 516
2159 2160
2160 2161
2161 2162
2162 2163
2163 2164
2164 2165
2165 2166
2166 2167
2166 49
2167 2168
2168 2170
2168 19
2169 4
2170 2171
2171 2172
2172 2173
2173 2174
2174 2175
2175 2176
2176 2177
2177 2178
2178 2179
2179 5
